
Gurobi 6.5.2 (win64) logging started 07/23/16 03:55:37


Gurobi 6.5.2 (win64) logging started 07/23/16 03:55:37

Optimize a model with 25878 rows, 1444 columns and 56026 nonzeros
Coefficient statistics:
  Matrix range    [4e-06, 1e+03]
  Objective range [1e+00, 1e+00]
  Bounds range    [1e+00, 1e+00]
  RHS range       [1e+00, 1e+03]
Found heuristic solution: objective 1696.4
Presolve removed 25850 rows and 1416 columns
Presolve time: 0.01s
Presolved: 28 rows, 28 columns, 84 nonzeros
Found heuristic solution: objective 276.7928698
Variable types: 28 continuous, 0 integer (0 binary)

Root relaxation: objective 2.200024e+02, 20 iterations, 0.00 seconds

    Nodes    |    Current Node    |     Objective Bounds      |     Work
 Expl Unexpl |  Obj  Depth IntInf | Incumbent    BestBd   Gap | It/Node Time

*    0     0               0     220.0023583  220.00236  0.00%     -    0s

Explored 0 nodes (20 simplex iterations) in 0.02 seconds
Thread count was 8 (of 8 available processors)

Optimal solution found (tolerance 1.00e-04)
Best objective 2.200023582884e+02, best bound 2.200023582884e+02, gap 0.0%

Wrote requested result file 'H2\instance29\\Results29EC_Sol4.lp'

